20190517 280 4500 0 0
20180518 280 0 0 0
20170602 260 0 0 0
20160519 230 0 0 0
20150515 210 0 0 0
20140509 200 0 0 0
20130617 200 5000 0 0
20120604 200 0 0 0
20110603 180 0 0 0
20100601 150 0 0 0
20090515 150 0 0 0
20080514 180 3000 0 0
20070517 120 0 0 0
20060525 0 4800 0 0
20060515 100 0 0 0
20050601 100 0 0 0
